Results/Experiment 1 Results/New Benchmark/RES_40/output_p1_0.00_p2_0.00_n_40_14.txt
solutions: 5184 nodes: 9418  modelTime: 106  solveTime: 129  totalTime: 238  modelSize: 7389  readTime: 3 matchingSize: 20
